
%FILE DATA:	Soccer Computational Problem for MiniZinc Models	%
%AUTHOR:	Jack Wall	%
%CONTACT:  	116397063@umail.ucc.ie			%
%LAST UPDATE:	03/19/2020, 13:39:23						%
%DESCRIPTION: 	172 games played with 38 games left				%


n=15; %number of teams

%Games to play
games=[|7,2|12,14|11,15|13,10|6,15|3,15|15,9|6,2|1,3|1,10|5,7|2,12|5,6|7,6|1,2|6,3|5,8|15,5|6,7|9,15|13,11|4,6|9,8|15,13|4,3|3,10|11,14|3,7|4,5|1,13|10,3|12,4|14,3|12,1|2,4|12,11|10,2|2,14|];

%Initial points
iPoints=[20,25,30,20,28,33,34,44,36,33,38,41,23,30,30];

%POSITION CONSTRAINTS
% [|teamID, operator, position|...]
% operators index:
%  1 for =  operator
%  2 for >  operator
%  3 for >= operator
%  4 for <  operator
%  5 for <= operator
positionConstraints=[|12,4,2|8,1,2|];